c NeuroCodeBench 2.0 CNF formula with verdict Unsat
p cnf 65 142
-1 4 -21 11 -16 0
1 -28 -29 63 18 -21 27 0
-1 -4 -65 46 14 -15 0
-1 -4 -65 -46 57 58 0
1 -28 29 24 46 33 12 -65 0
1 -28 29 -24 20 -10 -19 -56 0
1 -28 -29 -63 34 3 0
-1 -4 -65 46 14 15 47 0
1 28 -37 64 45 -41 -63 49 0
-1 -4 -65 -46 57 -58 -54 0
-1 4 21 32 60 47 56 16 3 0
1 -28 29 -24 -20 -57 -41 51 36 0
-1 4 -21 -11 -49 60 0
1 28 37 -51 16 30 -12 0
1 28 -37 64 45 -41 -63 -49 0
1 -28 29 24 46 33 12 65 0
1 -28 29 -24 20 -10 19 -50 -36 0
1 28 37 -51 16 -30 -43 -23 24 0
-1 -4 65 -29 -45 -12 0
-1 -4 65 -29 -45 12 14 13 0
1 -28 29 24 -46 23 57 -34 53 0
1 28 -37 -64 16 39 0
1 -28 -29 63 -18 -26 51 11 35 0
-1 4 21 32 60 -47 -40 -42 50 0
1 28 37 -51 16 -30 -43 23 0
1 -28 -29 63 -18 26 21 0
1 -28 29 -24 -20 -57 -41 -51 0
1 28 37 51 -6 12 0
1 -28 -29 -63 34 -3 -24 41 18 0
1 -28 -29 -63 -34 3 -23 -43 0
1 -28 -29 -63 -34 3 23 0
1 -28 29 -24 -20 57 55 12 10 0
1 28 37 -51 16 -30 43 42 54 -29 0
1 -28 29 24 46 33 -12 -21 -4 0
1 28 37 -51 16 -30 43 42 -54 63 0
1 -28 -29 -63 -34 -3 26 39 0
-1 -4 -65 46 14 15 -47 0
-1 -4 65 -29 -45 12 14 -13 -26 0
1 28 37 -51 16 -30 43 -42 35 0
1 28 -37 -64 16 -39 0
1 -28 -29 63 18 21 35 0
-1 4 -21 -11 -49 -60 13 -24 0
-1 4 -21 -11 49 63 36 -13 0
-1 -4 -65 46 -14 5 0
1 28 37 -51 16 -30 43 42 -54 -63 0
1 28 37 -51 16 -30 -43 -23 -24 0
1 -28 29 -24 -20 57 55 -12 0
1 -28 29 24 -46 23 57 34 0
1 -28 29 -24 -20 -57 41 -2 0
1 28 -37 -64 -16 -41 0
-1 -4 65 -29 -45 12 -14 0
-1 4 -21 -11 49 63 -36 -26 0
1 -28 -29 63 18 -21 -27 -23 55 0
-1 -4 65 29 11 47 -52 0
1 -28 29 -24 20 -10 19 50 30 0
1 28 -37 -64 -16 41 0
-1 4 -21 -11 -49 -60 13 24 0
1 28 -37 64 45 41 -32 0
1 -28 29 24 -46 23 -57 -4 0
1 -28 -29 -63 -34 -3 26 -39 0
-1 4 21 -32 46 23 0
-1 4 21 32 -60 38 0
1 28 37 51 6 0
-1 -4 65 29 -11 -23 27 -10 0
1 28 37 -51 -16 56 0
1 -28 29 -24 -20 -57 -41 51 -36 0
1 -28 29 -24 -20 -57 41 2 0
-1 -4 -65 -46 -57 -34 0
-1 4 21 32 -60 -38 -51 0
-1 4 21 32 60 47 -56 13 0
1 -28 -29 63 -18 -26 -51 0
1 -28 29 -24 20 -10 19 50 -30 0
-1 4 -21 -11 49 -63 55 0
-1 -4 65 -29 -45 12 14 -13 26 0
1 -28 29 24 -46 -23 53 -9 0
1 -28 29 24 -46 -23 53 9 0
1 -28 -29 63 -18 -26 51 -11 0
-1 4 21 -32 46 -23 -6 -59 0
-1 -4 65 29 -11 -23 27 10 0
-1 4 21 -32 -46 -10 0
-1 4 21 32 60 47 56 -16 23 0
1 -28 29 24 -46 23 57 -34 -53 0
1 -28 -29 -63 34 -3 24 -36 47 0
-1 4 21 32 60 47 56 -16 -23 0
1 28 37 -51 -16 -56 13 0
1 -28 -29 63 18 -21 -27 -23 -55 0
1 -28 29 -24 -20 57 -55 0
1 28 37 -51 16 30 12 0
1 -28 -29 63 -18 26 -21 0
-1 4 21 -32 46 -23 6 0
-1 -4 -65 46 -14 -5 0
-1 4 -21 -11 49 -63 -55 39 0
1 28 37 51 -6 -12 0
1 -28 -29 -63 -34 3 -23 43 0
-1 4 21 -32 -46 10 0
1 -28 -29 -63 34 -3 -24 -41 52 0
-1 -4 65 29 -11 23 0
1 -28 29 24 46 -33 0
-1 -4 -65 -46 57 -58 54 0
1 -28 29 24 -46 23 -57 4 0
1 -28 29 -24 20 -10 19 -50 36 0
-1 4 21 32 60 -47 -40 42 0
1 28 37 -51 16 -30 43 -42 -35 0
-1 4 -21 -11 49 -63 -55 -39 0
1 -28 -29 63 18 21 -35 0
1 -28 -29 -63 34 -3 24 -36 -47 0
1 -28 29 -24 20 10 0
-1 -4 65 29 11 47 52 0
1 28 -37 64 45 41 32 39 0
-1 4 21 32 60 47 56 16 -3 0
-1 4 21 32 60 -47 40 0
1 28 -37 64 -45 -36 33 23 0
1 -28 29 24 46 33 -12 -21 4 0
-1 4 -21 -11 49 63 -36 26 0
1 -28 -29 63 18 -21 -27 23 0
1 28 -37 64 -45 -36 33 -23 0
1 -28 29 -24 -20 57 55 12 -10 0
1 -28 29 -24 20 -10 -19 56 0
-1 4 21 32 60 -47 -40 -42 -50 0
-1 4 -21 11 16 0
1 -28 -29 -63 -34 -3 -26 0
-1 4 21 32 60 47 -56 -13 0
-1 4 21 -32 46 -23 -6 59 0
1 -28 -29 -63 34 -3 -24 41 -18 0
-1 4 21 32 -60 -38 51 0
1 -28 -29 63 -18 -26 51 11 -35 0
1 28 -37 64 -45 36 0
1 28 -37 64 45 -41 63 0
-1 4 -21 -11 49 63 36 13 0
1 -28 29 24 46 33 -12 21 0
-1 -4 -65 -46 -57 34 0
-1 4 -21 -11 -49 -60 -13 0
-1 -4 65 29 11 -47 0
1 -28 -29 -63 34 -3 -24 -41 -52 0
-1 -4 65 -29 45 0
-1 -4 65 29 -11 -23 -27 0
1 28 -37 64 -45 -36 -33 0
1 28 -37 64 45 41 32 -39 0
1 -28 -29 -63 34 -3 24 36 0
1 28 37 -51 -16 -56 -13 0
1 -28 29 24 -46 -23 -53 0
1 28 37 -51 16 -30 43 42 54 29 0
